(set-logic HORN)
(set-info :source |
    Benchmark: C_VC
    Output by Princess (http://www.philipp.ruemmer.org/princess.shtml)
|)
(set-info :status unknown)
(declare-fun inv_main10 (Int Int Int Int) Bool)
(declare-fun inv_main7 (Int Int Int) Bool)
(assert (forall ((var0 Int) (var1 Int) (var2 Int) (var3 Int)) (or (not (and (inv_main7 var1 var2 var0) (and (<= 0 (+ (+ var0 (* (- 1) var2)) (- 1))) (= var3 var2)))) (inv_main10 var1 var3 var2 var0))))
(assert (forall ((var0 Int) (var1 Int) (var2 Int) (var3 Int) (var4 Int)) (or (not (and (inv_main10 var3 var4 var0 var2) (and (not (<= 0 (+ (+ var2 (* (- 1) var0)) (- 1)))) (= (+ var4 1) var1)))) (inv_main7 var3 var1 var2))))
(assert (forall ((var0 Int) (var1 Int) (var2 Int)) (or (not (and (and (<= 0 (+ var1 (- 1))) (= 0 var0)) (= 0 var2))) (inv_main7 var0 var2 var1))))
(assert (forall ((var0 Int) (var1 Int) (var2 Int) (var3 Int) (var4 Int)) (or (not (and (inv_main7 var2 var4 var1) (and (and (and (<= 0 (+ (+ var1 (* (- 1) (+ var2 1))) (- 1))) (not (<= 0 (+ (+ var1 (* (- 1) var4)) (- 1))))) (= (+ var2 1) var0)) (= (+ var2 1) var3)))) (inv_main7 var0 var3 var1))))
(assert (forall ((var0 Int) (var1 Int) (var2 Int) (var3 Int) (var4 Int)) (or (not (and (inv_main10 var3 var4 var0 var2) (and (and (<= 0 (+ var0 (* (- 1) var3))) (<= 0 (+ (+ var2 (* (- 1) var0)) (- 1)))) (= (+ var0 1) var1)))) (inv_main10 var3 var4 var1 var2))))
(assert (forall ((var0 Int) (var1 Int) (var2 Int) (var3 Int) (var4 Int)) (or (not (and (inv_main10 var2 var4 var0 var1) (and (and (not (<= 0 (+ var0 (* (- 1) var2)))) (<= 0 (+ (+ var1 (* (- 1) var0)) (- 1)))) (= (+ var0 1) var3)))) (inv_main10 var2 var4 var3 var1))))
(assert (forall ((var0 Int) (var1 Int) (var2 Int) (var3 Int)) (not (and (inv_main10 var2 var3 var0 var1) (not (or (<= 0 (+ var0 (* (- 1) var2))) (not (<= 0 (+ (+ var1 (* (- 1) var0)) (- 1))))))))))
(check-sat)
